QPLIB_3512
LGQ
maximize
191 # number of variables
427 # number of constraints
0.0 # default value for linear coefficients in objective
142 # number of non-default linear coefficients in objective
1 -0.45
2 -0.45
3 -0.45
4 -0.67
5 -0.67
6 -0.67
7 -1.03
8 -1.03
9 -1.03
10 -1.75
11 -1.75
12 -1.75
13 -1.57
14 -1.57
15 -1.57
16 -1.05
17 -1.05
18 -1.05
19 -0.13
20 -0.13
21 -0.13
22 -0.47
23 -0.47
24 -0.47
25 -0.34
26 -0.34
27 -0.34
28 8.81
29 8.81
30 9.07
31 9.07
32 -0.6
33 -0.6
34 -0.6
35 -0.65
36 -0.65
37 -0.65
38 -0.75
39 -0.75
40 -0.75
41 9.52
42 9.52
43 9.52
44 8.69
45 8.69
46 -0.83
47 -0.83
48 -0.83
49 -1.0
50 -1.0
51 -1.0
52 -0.44
53 -0.44
54 -0.44
55 8.64
56 8.64
57 8.64
58 8.83
59 8.83
60 -0.87
61 -0.87
62 -0.87
63 -0.4
64 -0.4
65 -0.4
66 -0.8
67 -0.8
68 -0.8
69 8.69
70 8.69
71 9.34
72 9.34
81 -0.2
82 -0.2
83 -0.2
84 -0.62
85 -0.62
86 -0.62
87 -0.35
88 -0.35
89 -0.35
90 -0.76
91 -0.76
92 -0.76
93 -0.38
94 -0.38
95 -0.38
96 -0.08
97 -0.08
98 -0.08
99 -0.93
100 -0.93
101 -0.93
102 -0.57
103 -0.57
104 -0.57
105 -0.01
106 -0.01
107 -0.01
108 -0.16
109 -0.16
110 -0.31
111 -0.31
112 -0.17
113 -0.17
114 -0.17
115 -0.26
116 -0.26
117 -0.26
118 -0.69
119 -0.69
120 -0.69
121 -0.45
122 -0.45
123 -0.45
124 -0.23
125 -0.23
126 -0.15
127 -0.15
128 -0.15
129 -0.54
130 -0.54
131 -0.54
132 -0.08
133 -0.08
134 -0.08
135 -0.11
136 -0.11
137 -0.11
138 -0.82
139 -0.82
140 -0.82
141 -0.08
142 -0.08
143 -0.08
144 -0.26
145 -0.26
146 -0.26
147 -0.43
148 -0.43
149 -0.18
150 -0.18
0.0 # objective constant
168 # number of quadratic terms in all constraints
404 3 3 2.0
405 3 3 2.0
406 3 3 2.0
407 3 3 2.0
408 3 3 2.0
409 3 3 2.0
410 3 3 2.0
411 3 3 2.0
412 3 3 2.0
412 3 3 2.0
412 3 3 2.0
412 3 3 2.0
412 3 3 2.0
412 3 3 -2.0
412 3 3 -2.0
412 3 3 -2.0
412 3 3 -2.0
412 3 3 2.0
413 3 3 2.0
413 3 3 2.0
413 3 3 2.0
413 3 3 2.0
413 3 3 2.0
413 3 3 -2.0
413 3 3 -2.0
413 3 3 -2.0
413 3 3 2.0
413 3 3 -2.0
414 3 3 -2.0
414 3 3 2.0
414 3 3 2.0
414 3 3 2.0
414 3 3 2.0
414 3 3 2.0
414 3 3 -2.0
414 3 3 -2.0
414 3 3 -2.0
414 3 3 2.0
415 3 3 -2.0
415 3 3 2.0
415 3 3 2.0
415 3 3 2.0
415 3 3 2.0
415 3 3 2.0
415 3 3 -2.0
415 3 3 -2.0
415 3 3 2.0
415 3 3 -2.0
416 3 3 -2.0
416 3 3 -2.0
416 3 3 2.0
416 3 3 2.0
416 3 3 2.0
416 3 3 2.0
416 3 3 2.0
416 3 3 -2.0
416 3 3 -2.0
416 3 3 2.0
417 3 3 -2.0
417 3 3 -2.0
417 3 3 2.0
417 3 3 2.0
417 3 3 2.0
417 3 3 2.0
417 3 3 2.0
417 3 3 -2.0
417 3 3 2.0
417 3 3 -2.0
418 3 3 -2.0
418 3 3 -2.0
418 3 3 -2.0
418 3 3 2.0
418 3 3 2.0
418 3 3 2.0
418 3 3 2.0
418 3 3 2.0
418 3 3 -2.0
418 3 3 2.0
419 3 3 -2.0
419 3 3 -2.0
419 3 3 -2.0
419 3 3 2.0
419 3 3 2.0
419 3 3 2.0
419 3 3 2.0
419 3 3 2.0
419 3 3 2.0
419 3 3 -2.0
420 3 3 -2.0
420 3 3 2.0
420 3 3 2.0
420 3 3 2.0
420 3 3 2.0
420 3 3 2.0
420 3 3 -2.0
420 3 3 -2.0
420 3 3 -2.0
420 3 3 2.0
421 3 3 -2.0
421 3 3 2.0
421 3 3 2.0
421 3 3 2.0
421 3 3 2.0
421 3 3 2.0
421 3 3 -2.0
421 3 3 -2.0
421 3 3 2.0
421 3 3 -2.0
422 3 3 -2.0
422 3 3 -2.0
422 3 3 2.0
422 3 3 2.0
422 3 3 2.0
422 3 3 2.0
422 3 3 2.0
422 3 3 -2.0
422 3 3 -2.0
422 3 3 2.0
423 3 3 -2.0
423 3 3 -2.0
423 3 3 2.0
423 3 3 2.0
423 3 3 2.0
423 3 3 2.0
423 3 3 2.0
423 3 3 -2.0
423 3 3 2.0
423 3 3 -2.0
424 3 3 -2.0
424 3 3 -2.0
424 3 3 -2.0
424 3 3 2.0
424 3 3 2.0
424 3 3 2.0
424 3 3 2.0
424 3 3 2.0
424 3 3 -2.0
424 3 3 2.0
425 3 3 -2.0
425 3 3 -2.0
425 3 3 -2.0
425 3 3 2.0
425 3 3 2.0
425 3 3 2.0
425 3 3 2.0
425 3 3 2.0
425 3 3 2.0
425 3 3 -2.0
426 3 3 2.0
426 3 3 2.0
426 3 3 2.0
426 3 3 2.0
426 3 3 2.0
426 3 3 -2.0
426 3 3 -2.0
426 3 3 -2.0
426 3 3 -2.0
426 3 3 2.0
427 3 3 2.0
427 3 3 2.0
427 3 3 2.0
427 3 3 2.0
427 3 3 2.0
427 3 3 -2.0
427 3 3 -2.0
427 3 3 -2.0
427 3 3 2.0
427 3 3 -2.0
1015 # number of linear terms in all constraints
1 1 1.0
1 4 1.0
1 7 1.0
1 151 1.0
2 10 1.0
2 13 1.0
2 16 1.0
2 152 1.0
3 10 -1.0
3 19 1.0
3 22 1.0
3 25 1.0
3 32 -1.0
3 46 -1.0
3 60 -1.0
3 153 1.0
4 1 -1.0
4 13 -1.0
4 19 -1.0
4 32 1.0
4 35 1.0
4 38 1.0
4 41 1.0
4 49 -1.0
4 63 -1.0
4 154 1.0
5 4 -1.0
5 16 -1.0
5 22 -1.0
5 35 -1.0
5 46 1.0
5 49 1.0
5 52 1.0
5 55 1.0
5 66 -1.0
5 155 1.0
6 7 -1.0
6 25 -1.0
6 38 -1.0
6 52 -1.0
6 60 1.0
6 63 1.0
6 66 1.0
6 156 1.0
7 41 -1.0
7 55 -1.0
7 157 1.0
8 2 1.0
8 5 1.0
8 8 1.0
8 151 -1.0
8 158 1.0
9 3 1.0
9 6 1.0
9 9 1.0
9 158 -1.0
9 159 1.0
10 11 1.0
10 14 1.0
10 17 1.0
10 152 -1.0
10 160 1.0
11 12 1.0
11 15 1.0
11 18 1.0
11 160 -1.0
11 161 1.0
12 11 -1.0
12 20 1.0
12 23 1.0
12 26 1.0
12 28 1.0
12 30 1.0
12 33 -1.0
12 47 -1.0
12 61 -1.0
12 153 -1.0
12 162 1.0
13 12 -1.0
13 21 1.0
13 24 1.0
13 27 1.0
13 29 1.0
13 31 1.0
13 34 -1.0
13 48 -1.0
13 62 -1.0
13 162 -1.0
13 163 1.0
14 2 -1.0
14 14 -1.0
14 20 -1.0
14 33 1.0
14 36 1.0
14 39 1.0
14 42 1.0
14 44 1.0
14 50 -1.0
14 64 -1.0
14 154 -1.0
14 164 1.0
15 3 -1.0
15 15 -1.0
15 21 -1.0
15 34 1.0
15 37 1.0
15 40 1.0
15 43 1.0
15 45 1.0
15 51 -1.0
15 65 -1.0
15 164 -1.0
15 165 1.0
16 5 -1.0
16 17 -1.0
16 23 -1.0
16 36 -1.0
16 47 1.0
16 50 1.0
16 53 1.0
16 56 1.0
16 58 1.0
16 67 -1.0
16 155 -1.0
16 166 1.0
17 6 -1.0
17 18 -1.0
17 24 -1.0
17 37 -1.0
17 48 1.0
17 51 1.0
17 54 1.0
17 57 1.0
17 59 1.0
17 68 -1.0
17 166 -1.0
17 167 1.0
18 8 -1.0
18 26 -1.0
18 39 -1.0
18 53 -1.0
18 61 1.0
18 64 1.0
18 67 1.0
18 69 1.0
18 71 1.0
18 156 -1.0
18 168 1.0
19 9 -1.0
19 27 -1.0
19 40 -1.0
19 54 -1.0
19 62 1.0
19 65 1.0
19 68 1.0
19 70 1.0
19 72 1.0
19 168 -1.0
19 169 1.0
20 28 -1.0
20 42 -1.0
20 56 -1.0
20 69 -1.0
20 157 -1.0
20 170 1.0
21 29 -1.0
21 43 -1.0
21 57 -1.0
21 70 -1.0
21 170 -1.0
21 171 1.0
22 30 -1.0
22 44 -1.0
22 58 -1.0
22 71 -1.0
22 172 1.0
23 31 -1.0
23 45 -1.0
23 59 -1.0
23 72 -1.0
23 172 -1.0
23 173 1.0
24 1 1.0
24 81 -1.0
25 2 1.0
25 82 -1.0
26 3 1.0
26 83 -1.0
27 4 1.0
27 84 -1.0
28 5 1.0
28 85 -1.0
29 6 1.0
29 86 -1.0
30 7 1.0
30 87 -1.0
31 8 1.0
31 88 -1.0
32 9 1.0
32 89 -1.0
33 10 1.0
33 90 -1.0
34 11 1.0
34 91 -1.0
35 12 1.0
35 92 -1.0
36 13 1.0
36 93 -1.0
37 14 1.0
37 94 -1.0
38 15 1.0
38 95 -1.0
39 16 1.0
39 96 -1.0
40 17 1.0
40 97 -1.0
41 18 1.0
41 98 -1.0
42 19 1.0
42 99 -1.0
43 20 1.0
43 100 -1.0
44 21 1.0
44 101 -1.0
45 22 1.0
45 102 -1.0
46 23 1.0
46 103 -1.0
47 24 1.0
47 104 -1.0
48 25 1.0
48 105 -1.0
49 26 1.0
49 106 -1.0
50 27 1.0
50 107 -1.0
51 28 1.0
51 108 -1.0
52 29 1.0
52 109 -1.0
53 30 1.0
53 110 -1.0
54 31 1.0
54 111 -1.0
55 32 1.0
55 112 -1.0
56 33 1.0
56 113 -1.0
57 34 1.0
57 114 -1.0
58 35 1.0
58 115 -1.0
59 36 1.0
59 116 -1.0
60 37 1.0
60 117 -1.0
61 38 1.0
61 118 -1.0
62 39 1.0
62 119 -1.0
63 40 1.0
63 120 -1.0
64 41 1.0
64 121 -1.0
65 42 1.0
65 122 -1.0
66 43 1.0
66 123 -1.0
67 44 1.0
67 124 -1.0
68 45 1.0
68 125 -1.0
69 46 1.0
69 126 -1.0
70 47 1.0
70 127 -1.0
71 48 1.0
71 128 -1.0
72 49 1.0
72 129 -1.0
73 50 1.0
73 130 -1.0
74 51 1.0
74 131 -1.0
75 52 1.0
75 132 -1.0
76 53 1.0
76 133 -1.0
77 54 1.0
77 134 -1.0
78 55 1.0
78 135 -1.0
79 56 1.0
79 136 -1.0
80 57 1.0
80 137 -1.0
81 58 1.0
81 174 -1.0
82 59 1.0
82 175 -1.0
83 60 1.0
83 138 -1.0
84 61 1.0
84 139 -1.0
85 62 1.0
85 140 -1.0
86 63 1.0
86 141 -1.0
87 64 1.0
87 142 -1.0
88 65 1.0
88 143 -1.0
89 66 1.0
89 144 -1.0
90 67 1.0
90 145 -1.0
91 68 1.0
91 146 -1.0
92 69 1.0
92 147 -1.0
93 70 1.0
93 148 -1.0
94 71 1.0
94 149 -1.0
95 72 1.0
95 150 -1.0
96 108 1.0
96 176 -1.0
97 109 1.0
97 177 -1.0
98 110 1.0
98 176 -1.0
99 111 1.0
99 177 -1.0
100 122 1.0
100 178 -1.0
101 123 1.0
101 179 -1.0
102 124 1.0
102 178 -1.0
103 125 1.0
103 179 -1.0
104 136 1.0
104 180 -1.0
105 137 1.0
105 181 -1.0
106 174 1.0
106 180 -1.0
107 175 1.0
107 181 -1.0
108 147 1.0
108 182 -1.0
109 148 1.0
109 183 -1.0
110 149 1.0
110 182 -1.0
111 150 1.0
111 183 -1.0
112 108 1.0
112 184 -1.0
113 109 1.0
113 185 -1.0
114 110 1.0
114 184 -1.0
115 111 1.0
115 185 -1.0
116 122 1.0
116 186 -1.0
117 123 1.0
117 187 -1.0
118 124 1.0
118 186 -1.0
119 125 1.0
119 187 -1.0
120 136 1.0
120 188 -1.0
121 137 1.0
121 189 -1.0
122 174 1.0
122 188 -1.0
123 175 1.0
123 189 -1.0
124 147 1.0
124 190 -1.0
125 148 1.0
125 191 -1.0
126 149 1.0
126 190 -1.0
127 150 1.0
127 191 -1.0
128 108 -1.0
128 176 -1.0
129 109 -1.0
129 177 -1.0
130 110 -1.0
130 176 -1.0
131 111 -1.0
131 177 -1.0
132 122 -1.0
132 178 -1.0
133 123 -1.0
133 179 -1.0
134 124 -1.0
134 178 -1.0
135 125 -1.0
135 179 -1.0
136 136 -1.0
136 180 -1.0
137 137 -1.0
137 181 -1.0
138 174 -1.0
138 180 -1.0
139 175 -1.0
139 181 -1.0
140 147 -1.0
140 182 -1.0
141 148 -1.0
141 183 -1.0
142 149 -1.0
142 182 -1.0
143 150 -1.0
143 183 -1.0
144 108 -1.0
144 184 -1.0
145 109 -1.0
145 185 -1.0
146 110 -1.0
146 184 -1.0
147 111 -1.0
147 185 -1.0
148 122 -1.0
148 186 -1.0
149 123 -1.0
149 187 -1.0
150 124 -1.0
150 186 -1.0
151 125 -1.0
151 187 -1.0
152 136 -1.0
152 188 -1.0
153 137 -1.0
153 189 -1.0
154 174 -1.0
154 188 -1.0
155 175 -1.0
155 189 -1.0
156 147 -1.0
156 190 -1.0
157 148 -1.0
157 191 -1.0
158 149 -1.0
158 190 -1.0
159 150 -1.0
159 191 -1.0
160 90 1.0
160 99 1.0
161 91 1.0
161 100 1.0
162 92 1.0
162 101 1.0
163 90 1.0
163 102 1.0
164 91 1.0
164 103 1.0
165 92 1.0
165 104 1.0
166 90 1.0
166 105 1.0
167 91 1.0
167 106 1.0
168 92 1.0
168 107 1.0
169 91 1.0
169 108 1.0
170 92 1.0
170 109 1.0
171 91 1.0
171 110 1.0
172 92 1.0
172 111 1.0
173 99 1.0
173 112 1.0
174 100 1.0
174 113 1.0
175 101 1.0
175 114 1.0
176 102 1.0
176 112 1.0
177 103 1.0
177 113 1.0
178 104 1.0
178 114 1.0
179 105 1.0
179 112 1.0
180 106 1.0
180 113 1.0
181 107 1.0
181 114 1.0
182 108 1.0
182 113 1.0
183 109 1.0
183 114 1.0
184 110 1.0
184 113 1.0
185 111 1.0
185 114 1.0
186 99 1.0
186 126 1.0
187 100 1.0
187 127 1.0
188 101 1.0
188 128 1.0
189 102 1.0
189 126 1.0
190 103 1.0
190 127 1.0
191 104 1.0
191 128 1.0
192 105 1.0
192 126 1.0
193 106 1.0
193 127 1.0
194 107 1.0
194 128 1.0
195 108 1.0
195 127 1.0
196 109 1.0
196 128 1.0
197 110 1.0
197 127 1.0
198 111 1.0
198 128 1.0
199 99 1.0
199 138 1.0
200 100 1.0
200 139 1.0
201 101 1.0
201 140 1.0
202 102 1.0
202 138 1.0
203 103 1.0
203 139 1.0
204 104 1.0
204 140 1.0
205 105 1.0
205 138 1.0
206 106 1.0
206 139 1.0
207 107 1.0
207 140 1.0
208 108 1.0
208 139 1.0
209 109 1.0
209 140 1.0
210 110 1.0
210 139 1.0
211 111 1.0
211 140 1.0
212 81 1.0
212 112 1.0
213 82 1.0
213 113 1.0
214 83 1.0
214 114 1.0
215 81 1.0
215 115 1.0
216 82 1.0
216 116 1.0
217 83 1.0
217 117 1.0
218 81 1.0
218 118 1.0
219 82 1.0
219 119 1.0
220 83 1.0
220 120 1.0
221 81 1.0
221 121 1.0
222 82 1.0
222 122 1.0
223 83 1.0
223 123 1.0
224 82 1.0
224 124 1.0
225 83 1.0
225 125 1.0
226 93 1.0
226 112 1.0
227 94 1.0
227 113 1.0
228 95 1.0
228 114 1.0
229 93 1.0
229 115 1.0
230 94 1.0
230 116 1.0
231 95 1.0
231 117 1.0
232 93 1.0
232 118 1.0
233 94 1.0
233 119 1.0
234 95 1.0
234 120 1.0
235 93 1.0
235 121 1.0
236 94 1.0
236 122 1.0
237 95 1.0
237 123 1.0
238 94 1.0
238 124 1.0
239 95 1.0
239 125 1.0
240 99 1.0
240 112 1.0
241 100 1.0
241 113 1.0
242 101 1.0
242 114 1.0
243 99 1.0
243 115 1.0
244 100 1.0
244 116 1.0
245 101 1.0
245 117 1.0
246 99 1.0
246 118 1.0
247 100 1.0
247 119 1.0
248 101 1.0
248 120 1.0
249 99 1.0
249 121 1.0
250 100 1.0
250 122 1.0
251 101 1.0
251 123 1.0
252 100 1.0
252 124 1.0
253 101 1.0
253 125 1.0
254 112 1.0
254 129 1.0
255 113 1.0
255 130 1.0
256 114 1.0
256 131 1.0
257 115 1.0
257 129 1.0
258 116 1.0
258 130 1.0
259 117 1.0
259 131 1.0
260 118 1.0
260 129 1.0
261 119 1.0
261 130 1.0
262 120 1.0
262 131 1.0
263 121 1.0
263 129 1.0
264 122 1.0
264 130 1.0
265 123 1.0
265 131 1.0
266 124 1.0
266 130 1.0
267 125 1.0
267 131 1.0
268 112 1.0
268 141 1.0
269 113 1.0
269 142 1.0
270 114 1.0
270 143 1.0
271 115 1.0
271 141 1.0
272 116 1.0
272 142 1.0
273 117 1.0
273 143 1.0
274 118 1.0
274 141 1.0
275 119 1.0
275 142 1.0
276 120 1.0
276 143 1.0
277 121 1.0
277 141 1.0
278 122 1.0
278 142 1.0
279 123 1.0
279 143 1.0
280 124 1.0
280 142 1.0
281 125 1.0
281 143 1.0
282 84 1.0
282 126 1.0
283 85 1.0
283 127 1.0
284 86 1.0
284 128 1.0
285 84 1.0
285 129 1.0
286 85 1.0
286 130 1.0
287 86 1.0
287 131 1.0
288 84 1.0
288 132 1.0
289 85 1.0
289 133 1.0
290 86 1.0
290 134 1.0
291 84 1.0
291 135 1.0
292 85 1.0
292 136 1.0
293 86 1.0
293 137 1.0
294 85 1.0
294 174 1.0
295 86 1.0
295 175 1.0
296 96 1.0
296 126 1.0
297 97 1.0
297 127 1.0
298 98 1.0
298 128 1.0
299 96 1.0
299 129 1.0
300 97 1.0
300 130 1.0
301 98 1.0
301 131 1.0
302 96 1.0
302 132 1.0
303 97 1.0
303 133 1.0
304 98 1.0
304 134 1.0
305 96 1.0
305 135 1.0
306 97 1.0
306 136 1.0
307 98 1.0
307 137 1.0
308 97 1.0
308 174 1.0
309 98 1.0
309 175 1.0
310 102 1.0
310 126 1.0
311 103 1.0
311 127 1.0
312 104 1.0
312 128 1.0
313 102 1.0
313 129 1.0
314 103 1.0
314 130 1.0
315 104 1.0
315 131 1.0
316 102 1.0
316 132 1.0
317 103 1.0
317 133 1.0
318 104 1.0
318 134 1.0
319 102 1.0
319 135 1.0
320 103 1.0
320 136 1.0
321 104 1.0
321 137 1.0
322 103 1.0
322 174 1.0
323 104 1.0
323 175 1.0
324 115 1.0
324 126 1.0
325 116 1.0
325 127 1.0
326 117 1.0
326 128 1.0
327 115 1.0
327 129 1.0
328 116 1.0
328 130 1.0
329 117 1.0
329 131 1.0
330 115 1.0
330 132 1.0
331 116 1.0
331 133 1.0
332 117 1.0
332 134 1.0
333 115 1.0
333 135 1.0
334 116 1.0
334 136 1.0
335 117 1.0
335 137 1.0
336 116 1.0
336 174 1.0
337 117 1.0
337 175 1.0
338 126 1.0
338 144 1.0
339 127 1.0
339 145 1.0
340 128 1.0
340 146 1.0
341 129 1.0
341 144 1.0
342 130 1.0
342 145 1.0
343 131 1.0
343 146 1.0
344 132 1.0
344 144 1.0
345 133 1.0
345 145 1.0
346 134 1.0
346 146 1.0
347 135 1.0
347 144 1.0
348 136 1.0
348 145 1.0
349 137 1.0
349 146 1.0
350 145 1.0
350 174 1.0
351 146 1.0
351 175 1.0
352 87 1.0
352 138 1.0
353 88 1.0
353 139 1.0
354 89 1.0
354 140 1.0
355 87 1.0
355 141 1.0
356 88 1.0
356 142 1.0
357 89 1.0
357 143 1.0
358 87 1.0
358 144 1.0
359 88 1.0
359 145 1.0
360 89 1.0
360 146 1.0
361 88 1.0
361 147 1.0
362 89 1.0
362 148 1.0
363 88 1.0
363 149 1.0
364 89 1.0
364 150 1.0
365 105 1.0
365 138 1.0
366 106 1.0
366 139 1.0
367 107 1.0
367 140 1.0
368 105 1.0
368 141 1.0
369 106 1.0
369 142 1.0
370 107 1.0
370 143 1.0
371 105 1.0
371 144 1.0
372 106 1.0
372 145 1.0
373 107 1.0
373 146 1.0
374 106 1.0
374 147 1.0
375 107 1.0
375 148 1.0
376 106 1.0
376 149 1.0
377 107 1.0
377 150 1.0
378 118 1.0
378 138 1.0
379 119 1.0
379 139 1.0
380 120 1.0
380 140 1.0
381 118 1.0
381 141 1.0
382 119 1.0
382 142 1.0
383 120 1.0
383 143 1.0
384 118 1.0
384 144 1.0
385 119 1.0
385 145 1.0
386 120 1.0
386 146 1.0
387 119 1.0
387 147 1.0
388 120 1.0
388 148 1.0
389 119 1.0
389 149 1.0
390 120 1.0
390 150 1.0
391 132 1.0
391 138 1.0
392 133 1.0
392 139 1.0
393 134 1.0
393 140 1.0
394 132 1.0
394 141 1.0
395 133 1.0
395 142 1.0
396 134 1.0
396 143 1.0
397 132 1.0
397 144 1.0
398 133 1.0
398 145 1.0
399 134 1.0
399 146 1.0
400 133 1.0
400 147 1.0
401 134 1.0
401 148 1.0
402 133 1.0
402 149 1.0
403 134 1.0
403 150 1.0
404 10 -0.9
404 19 0.7
404 22 0.7
404 25 0.7
404 32 -0.8
404 46 -0.7
404 60 -0.7
405 1 -0.7
405 13 -0.9
405 19 -0.7
405 32 0.8
405 35 0.8
405 38 0.8
405 41 0.8
405 49 -0.7
405 63 -0.7
406 4 -0.7
406 16 -0.9
406 22 -0.7
406 35 -0.8
406 46 0.7
406 49 0.7
406 52 0.7
406 55 0.7
406 66 -0.7
407 7 -0.7
407 25 -0.7
407 38 -0.8
407 52 -0.7
407 60 0.7
407 63 0.7
407 66 0.7
408 32 -0.9
408 46 -0.8
408 60 -0.4
409 1 -0.2
409 32 0.9
409 35 0.9
409 38 0.9
409 41 0.9
409 49 -0.8
409 63 -0.4
410 4 -0.2
410 35 -0.9
410 46 0.8
410 49 0.8
410 52 0.8
410 55 0.8
410 66 -0.4
411 7 -0.2
411 38 -0.9
411 52 -0.8
411 60 0.4
411 63 0.4
411 66 0.4
412 11 -0.9
413 12 -0.9
414 2 -0.7
414 14 -0.9
415 3 -0.7
415 15 -0.9
416 5 -0.7
416 17 -0.9
417 6 -0.7
417 18 -0.9
418 8 -0.7
419 9 -0.7
420 2 -0.2
421 3 -0.2
422 5 -0.2
423 6 -0.2
424 8 -0.2
425 9 -0.2
1.79769313486232E+308 # value for infinity
-1.79769313486232E+308 # default left-hand-side value
79 # number of non-default left-hand-sides
1 1.9
2 1.8
3 0.3
4 1.8
5 1.3
6 0.2
7 -0.35
8 0.1
9 0.7
10 0.8
11 0.3
12 0.0
13 0.0
14 0.0
15 0.0
16 0.0
17 0.0
18 0.0
19 0.0
20 -0.44
21 -0.77
22 0.69
23 -0.8
128 -2.0
129 -2.0
130 -2.0
131 -2.0
132 -2.0
133 -2.0
134 -2.0
135 -2.0
136 -2.0
137 -2.0
138 -2.0
139 -2.0
140 -2.0
141 -2.0
142 -2.0
143 -2.0
144 -1.9
145 -1.9
146 -1.7
147 -1.7
148 -1.9
149 -1.9
150 -1.7
151 -1.7
152 -1.9
153 -1.9
154 -1.7
155 -1.7
156 -1.9
157 -1.9
158 -1.7
159 -1.7
404 0.21
405 1.44
406 0.91
407 0.14
408 0.0
409 1.62
410 1.04
411 0.08
412 0.0
413 0.0
414 0.0
415 0.0
416 0.0
417 0.0
418 0.0
419 0.0
420 0.0
421 0.0
422 0.0
423 0.0
424 0.0
425 0.0
426 0.0
427 0.0
1.0 # default right-hand-side value
183 # number of non-default right-hand-sides
1 1.9
2 1.8
3 0.3
4 1.8
5 1.3
6 0.2
7 -0.35
8 0.1
9 0.7
10 0.8
11 0.3
12 0.0
13 0.0
14 0.0
15 0.0
16 0.0
17 0.0
18 0.0
19 0.0
20 -0.44
21 -0.77
22 0.69
23 -0.8
24 0.0
25 0.0
26 0.0
27 0.0
28 0.0
29 0.0
30 0.0
31 0.0
32 0.0
33 0.0
34 0.0
35 0.0
36 0.0
37 0.0
38 0.0
39 0.0
40 0.0
41 0.0
42 0.0
43 0.0
44 0.0
45 0.0
46 0.0
47 0.0
48 0.0
49 0.0
50 0.0
51 0.0
52 0.0
53 0.0
54 0.0
55 0.0
56 0.0
57 0.0
58 0.0
59 0.0
60 0.0
61 0.0
62 0.0
63 0.0
64 0.0
65 0.0
66 0.0
67 0.0
68 0.0
69 0.0
70 0.0
71 0.0
72 0.0
73 0.0
74 0.0
75 0.0
76 0.0
77 0.0
78 0.0
79 0.0
80 0.0
81 0.0
82 0.0
83 0.0
84 0.0
85 0.0
86 0.0
87 0.0
88 0.0
89 0.0
90 0.0
91 0.0
92 0.0
93 0.0
94 0.0
95 0.0
96 0.3
97 0.3
98 0.2
99 0.2
100 0.3
101 0.3
102 0.2
103 0.2
104 0.3
105 0.3
106 0.2
107 0.2
108 0.3
109 0.3
110 0.2
111 0.2
112 0.5
113 0.5
114 0.9
115 0.9
116 0.5
117 0.5
118 0.9
119 0.9
120 0.5
121 0.5
122 0.9
123 0.9
124 0.5
125 0.5
126 0.9
127 0.9
128 1.79769313486232E+308
129 1.79769313486232E+308
130 1.79769313486232E+308
131 1.79769313486232E+308
132 1.79769313486232E+308
133 1.79769313486232E+308
134 1.79769313486232E+308
135 1.79769313486232E+308
136 1.79769313486232E+308
137 1.79769313486232E+308
138 1.79769313486232E+308
139 1.79769313486232E+308
140 1.79769313486232E+308
141 1.79769313486232E+308
142 1.79769313486232E+308
143 1.79769313486232E+308
144 1.79769313486232E+308
145 1.79769313486232E+308
146 1.79769313486232E+308
147 1.79769313486232E+308
148 1.79769313486232E+308
149 1.79769313486232E+308
150 1.79769313486232E+308
151 1.79769313486232E+308
152 1.79769313486232E+308
153 1.79769313486232E+308
154 1.79769313486232E+308
155 1.79769313486232E+308
156 1.79769313486232E+308
157 1.79769313486232E+308
158 1.79769313486232E+308
159 1.79769313486232E+308
404 0.21
405 1.44
406 0.91
407 0.14
408 0.0
409 1.62
410 1.04
411 0.08
412 0.0
413 0.0
414 0.0
415 0.0
416 0.0
417 0.0
418 0.0
419 0.0
420 0.0
421 0.0
422 0.0
423 0.0
424 0.0
425 0.0
426 0.0
427 0.0
0.0 # default variable lower bound value
0 # number of non-default variable lower bounds
1.0 # default variable upper bound value
23 # number of non-default variable upper bounds
151 2.0
152 2.0
153 2.0
154 2.0
155 2.0
156 2.0
157 2.0
158 2.0
159 2.0
160 2.0
161 2.0
162 2.0
163 2.0
164 2.0
165 2.0
166 2.0
167 2.0
168 2.0
169 2.0
170 2.0
171 2.0
172 2.0
173 2.0
0 # default variable type
72 # number of non-default variable types
81 1
82 1
83 1
84 1
85 1
86 1
87 1
88 1
89 1
90 1
91 1
92 1
93 1
94 1
95 1
96 1
97 1
98 1
99 1
100 1
101 1
102 1
103 1
104 1
105 1
106 1
107 1
108 1
109 1
110 1
111 1
112 1
113 1
114 1
115 1
116 1
117 1
118 1
119 1
120 1
121 1
122 1
123 1
124 1
125 1
126 1
127 1
128 1
129 1
130 1
131 1
132 1
133 1
134 1
135 1
136 1
137 1
138 1
139 1
140 1
141 1
142 1
143 1
144 1
145 1
146 1
147 1
148 1
149 1
150 1
174 1
175 1
0.0 # default variable primal value in starting point
0 # number of non-default variable primal values in starting point
0.0 # default constraint dual value in starting point
0 # number of non-default constraint dual values in starting point
0.0 # default variable bound dual value in starting point
0 # number of non-default variable bound dual values in starting point
0 # number of non-default variable names
0 # number of non-default constraint names
